Minimize
  - 30 y_0 - 39 y_1 - 38 y_2 - 46 y_3 - 45 y_4 - 49 y_5 - 44 y_6 - 52 y_7
   - 29 y_8 - 27 y_9 - 28 y_10 - 31 y_11 - 42 y_12 - 20 y_13 - 56 y_14
   - 62 y_15 - 31 y_16 - 19 y_17 - y_18 - 48 y_19 - 39 y_20 - 34 y_21
   - 19 y_22 - 32 y_23 - 32 y_24 - 42 y_25 - 34 y_26 - 36 y_27 - 14 y_28
   - 19 y_29 - 66 y_30 - 27 y_31 - 31 y_32 - 46 y_33 - 65 y_34 - 24 y_35
   - 10 y_36 - 27 y_37 - 50 y_38 - 41 y_39 - 13 y_40 - 65 y_41 - 25 y_42
   - 28 y_43 - 20 y_44 - 44 y_45 - 36 y_46 - 45 y_47 - 55 y_48 - 32 y_49
   - 27 y_50 - 40 y_51 - 22 y_52 - 38 y_53 - 51 y_54 - 32 y_55 - 49 y_56
   - 42 y_57 - 52 y_58 - 17 y_59 - 45 y_60 - 51 y_61 - 28 y_62 - 36 y_63
   - 30 y_64 - 24 y_65 - 42 y_66 - 57 y_67 - 31 y_68 - 4 y_69 - 51 y_70
   - 49 y_71 - 54 y_72 - 14 y_73 - 46 y_74 - 7 y_75 - 39 y_76 - 27 y_77
   - 42 y_78 - 14 y_79 - 41 y_80 - 32 y_81 - 5 y_82 - 34 y_83 - 33 y_84
   - 9 y_85 - 51 y_86 - 16 y_87 - 33 y_88 - 46 y_89 - 27 y_90 - 34 y_91
   - 40 y_92 - 34 y_93 - 49 y_94 - 39 y_95 - 40 y_96 - 27 y_98 - 37 y_99
   + 3476 Constant
Subject To
 c_0: y_82 = 1
 c_1_0: y_0 + y_9 + y_10 + y_13 + y_16 + y_26 + y_31 + y_32 + y_37 + y_44
   + y_50 + y_81 + y_91 + y_93 + y_99 >= 1
 c_1_1: y_1 + y_2 + y_4 + y_6 + y_16 + y_25 + y_39 + y_51 + y_83 + y_91
   + y_96 + y_99 >= 1
 c_1_2: y_1 + y_2 + y_11 + y_20 + y_23 + y_24 + y_27 + y_33 + y_45 + y_46
   + y_49 + y_64 + y_66 + y_68 + y_74 + y_76 + y_83 >= 1
 c_1_3: y_3 + y_5 + y_7 + y_19 + y_39 + y_53 + y_56 + y_58 + y_70 + y_71
   + y_72 + y_94 >= 1
 c_1_4: y_1 + y_4 + y_6 + y_19 + y_25 + y_48 + y_51 + y_54 + y_61 + y_96
   + y_99 >= 1
 c_1_5: y_3 + y_5 + y_7 + y_38 + y_56 + y_57 + y_58 + y_70 + y_71 + y_94
   >= 1
 c_1_6: y_1 + y_4 + y_6 + y_19 + y_25 + y_33 + y_51 + y_54 + y_61 + y_96
   + y_99 >= 1
 c_1_7: y_3 + y_5 + y_7 + y_14 + y_19 + y_58 + y_72 + y_94 >= 1
 c_1_8: y_8 + y_11 + y_23 + y_24 + y_42 + y_49 + y_64 + y_68 + y_98 >= 1
 c_1_9: y_0 + y_9 + y_10 + y_13 + y_16 + y_26 + y_31 + y_32 + y_37 + y_44
   + y_50 + y_81 + y_91 + y_93 >= 1
 c_1_10: y_0 + y_9 + y_10 + y_13 + y_17 + y_26 + y_31 + y_32 + y_37 + y_43
   + y_44 + y_50 + y_53 + y_65 + y_81 + y_91 + y_93 >= 1
 c_1_11: y_2 + y_8 + y_11 + y_20 + y_23 + y_24 + y_27 + y_35 + y_42 + y_46
   + y_49 + y_64 + y_68 + y_76 + y_83 + y_90 + y_98 >= 1
 c_1_12: y_12 + y_57 + y_60 + y_63 + y_78 + y_80 + y_86 + y_88 + y_92
   + y_95 >= 1
 c_1_13: y_0 + y_9 + y_10 + y_13 + y_17 + y_28 + y_31 + y_37 + y_40 + y_44
   + y_50 + y_59 + y_65 + y_73 + y_79 >= 1
 c_1_14: y_7 + y_14 + y_15 + y_19 + y_58 + y_61 + y_67 + y_72 >= 1
 c_1_15: y_14 + y_15 + y_34 + y_67 + y_72 >= 1
 c_1_16: y_0 + y_1 + y_9 + y_16 + y_23 + y_24 + y_31 + y_32 + y_35 + y_46
   + y_49 + y_51 + y_83 + y_90 + y_91 + y_96 + y_98 + y_99 >= 1
 c_1_17: y_10 + y_13 + y_17 + y_28 + y_37 + y_40 + y_43 + y_44 + y_50
   + y_52 + y_65 + y_77 + y_79 + y_87 >= 1
 c_1_18: y_18 + y_36 + y_69 + y_75 + y_82 + y_85 + y_97 >= 1
 c_1_19: y_3 + y_4 + y_6 + y_7 + y_14 + y_19 + y_25 + y_39 + y_51 + y_58
   + y_61 + y_72 + y_94 + y_96 >= 1
 c_1_20: y_2 + y_11 + y_20 + y_23 + y_24 + y_27 + y_33 + y_45 + y_46 + y_47
   + y_49 + y_64 + y_66 + y_68 + y_74 + y_76 + y_83 >= 1
 c_1_21: y_21 + y_43 + y_55 + y_62 + y_63 + y_77 + y_80 + y_84 + y_88
   + y_92 >= 1
 c_1_22: y_22 + y_29 + y_35 + y_42 + y_59 + y_73 + y_90 + y_98 >= 1
 c_1_23: y_2 + y_8 + y_11 + y_16 + y_20 + y_23 + y_24 + y_27 + y_35 + y_46
   + y_49 + y_64 + y_68 + y_76 + y_83 + y_90 + y_98 >= 1
 c_1_24: y_2 + y_8 + y_11 + y_16 + y_20 + y_23 + y_24 + y_27 + y_35 + y_42
   + y_46 + y_49 + y_64 + y_68 + y_76 + y_83 + y_90 + y_98 >= 1
 c_1_25: y_1 + y_4 + y_6 + y_19 + y_25 + y_39 + y_51 + y_61 + y_96 + y_99
   >= 1
 c_1_26: y_0 + y_9 + y_10 + y_26 + y_31 + y_32 + y_37 + y_39 + y_50 + y_53
   + y_81 + y_91 + y_93 + y_95 + y_96 + y_99 >= 1
 c_1_27: y_2 + y_11 + y_20 + y_23 + y_24 + y_27 + y_33 + y_45 + y_46 + y_49
   + y_64 + y_66 + y_68 + y_76 + y_83 + y_90 + y_98 >= 1
 c_1_28: y_13 + y_17 + y_28 + y_40 + y_44 + y_59 + y_69 + y_73 + y_75
   + y_79 + y_85 >= 1
 c_1_29: y_22 + y_29 + y_35 + y_36 + y_42 + y_59 + y_98 >= 1
 c_1_30: y_30 + y_34 + y_41 >= 1
 c_1_31: y_0 + y_9 + y_10 + y_13 + y_16 + y_26 + y_31 + y_32 + y_37 + y_44
   + y_50 + y_81 + y_91 + y_93 >= 1
 c_1_32: y_0 + y_9 + y_10 + y_16 + y_26 + y_31 + y_32 + y_37 + y_39 + y_50
   + y_53 + y_81 + y_91 + y_93 + y_99 >= 1
 c_1_33: y_2 + y_6 + y_20 + y_27 + y_33 + y_45 + y_54 + y_66 + y_74 + y_76
   >= 1
 c_1_34: y_15 + y_30 + y_34 + y_41 >= 1
 c_1_35: y_11 + y_16 + y_22 + y_23 + y_24 + y_29 + y_35 + y_42 + y_44
   + y_49 + y_59 + y_64 + y_68 + y_83 + y_90 + y_98 >= 1
 c_1_36: y_18 + y_29 + y_36 + y_69 + y_73 + y_75 + y_82 + y_85 + y_97 >= 1
 c_1_37: y_0 + y_9 + y_10 + y_13 + y_17 + y_26 + y_31 + y_32 + y_37 + y_43
   + y_44 + y_50 + y_52 + y_63 + y_65 + y_77 + y_81 + y_93 >= 1
 c_1_38: y_5 + y_38 + y_56 + y_57 + y_60 + y_70 + y_71 + y_86 >= 1
 c_1_39: y_1 + y_3 + y_19 + y_25 + y_26 + y_32 + y_39 + y_51 + y_53 + y_91
   + y_93 + y_94 + y_96 + y_99 >= 1
 c_1_40: y_13 + y_17 + y_28 + y_40 + y_44 + y_59 + y_69 + y_73 + y_79
   + y_85 + y_87 >= 1
 c_1_41: y_30 + y_34 + y_41 >= 1
 c_1_42: y_8 + y_11 + y_22 + y_24 + y_29 + y_35 + y_42 + y_49 + y_64 + y_68
   + y_90 + y_98 >= 1
 c_1_43: y_10 + y_17 + y_21 + y_37 + y_43 + y_50 + y_52 + y_62 + y_63
   + y_65 + y_77 + y_81 + y_88 >= 1
 c_1_44: y_0 + y_9 + y_10 + y_13 + y_17 + y_28 + y_31 + y_35 + y_37 + y_40
   + y_44 + y_50 + y_59 + y_73 + y_79 >= 1
 c_1_45: y_2 + y_20 + y_27 + y_33 + y_45 + y_46 + y_47 + y_66 + y_74 + y_76
   >= 1
 c_1_46: y_2 + y_11 + y_16 + y_20 + y_23 + y_24 + y_27 + y_45 + y_46 + y_49
   + y_64 + y_66 + y_68 + y_76 + y_83 + y_90 + y_98 >= 1
 c_1_47: y_20 + y_45 + y_47 + y_66 + y_74 + y_76 >= 1
 c_1_48: y_4 + y_48 + y_54 + y_61 + y_67 >= 1
 c_1_49: y_2 + y_8 + y_11 + y_16 + y_20 + y_23 + y_24 + y_27 + y_35 + y_42
   + y_46 + y_49 + y_64 + y_68 + y_76 + y_83 + y_90 + y_98 >= 1
 c_1_50: y_0 + y_9 + y_10 + y_13 + y_17 + y_26 + y_31 + y_32 + y_37 + y_43
   + y_44 + y_50 + y_65 + y_81 + y_91 + y_93 >= 1
 c_1_51: y_1 + y_4 + y_6 + y_16 + y_19 + y_25 + y_39 + y_51 + y_91 + y_96
   + y_99 >= 1
 c_1_52: y_17 + y_37 + y_43 + y_52 + y_62 + y_65 + y_77 + y_79 + y_87 >= 1
 c_1_53: y_3 + y_10 + y_26 + y_32 + y_39 + y_53 + y_57 + y_63 + y_81 + y_91
   + y_93 + y_95 >= 1
 c_1_54: y_4 + y_6 + y_33 + y_48 + y_54 + y_61 >= 1
 c_1_55: y_21 + y_55 + y_62 + y_77 + y_80 + y_84 + y_88 >= 1
 c_1_56: y_3 + y_5 + y_38 + y_56 + y_57 + y_60 + y_70 + y_71 + y_86 + y_95
   >= 1
 c_1_57: y_5 + y_12 + y_38 + y_53 + y_56 + y_57 + y_60 + y_63 + y_70 + y_71
   + y_78 + y_81 + y_92 + y_93 + y_95 >= 1
 c_1_58: y_3 + y_5 + y_7 + y_14 + y_19 + y_58 + y_70 + y_71 + y_72 + y_94
   >= 1
 c_1_59: y_13 + y_22 + y_28 + y_29 + y_35 + y_40 + y_44 + y_59 + y_73
   + y_79 + y_85 >= 1
 c_1_60: y_12 + y_38 + y_56 + y_57 + y_60 + y_63 + y_78 + y_86 + y_92
   + y_95 >= 1
 c_1_61: y_4 + y_6 + y_14 + y_19 + y_25 + y_48 + y_54 + y_61 + y_67 >= 1
 c_1_62: y_21 + y_43 + y_52 + y_55 + y_62 + y_65 + y_77 + y_84 + y_88 >= 1
 c_1_63: y_12 + y_21 + y_37 + y_43 + y_53 + y_57 + y_60 + y_63 + y_78
   + y_81 + y_88 + y_92 + y_93 + y_95 >= 1
 c_1_64: y_2 + y_8 + y_11 + y_20 + y_23 + y_24 + y_27 + y_35 + y_42 + y_46
   + y_49 + y_64 + y_68 + y_76 + y_83 + y_90 + y_98 >= 1
 c_1_65: y_10 + y_13 + y_17 + y_37 + y_43 + y_50 + y_52 + y_62 + y_65
   + y_77 + y_79 + y_81 + y_87 + y_88 >= 1
 c_1_66: y_2 + y_20 + y_27 + y_33 + y_45 + y_46 + y_47 + y_66 + y_74 + y_76
   >= 1
 c_1_67: y_14 + y_15 + y_48 + y_61 + y_67 >= 1
 c_1_68: y_2 + y_8 + y_11 + y_20 + y_23 + y_24 + y_27 + y_35 + y_42 + y_46
   + y_49 + y_64 + y_68 + y_76 + y_83 + y_90 + y_98 >= 1
 c_1_69: y_18 + y_28 + y_36 + y_40 + y_69 + y_73 + y_75 + y_82 + y_85
   + y_97 >= 1
 c_1_70: y_3 + y_5 + y_38 + y_56 + y_57 + y_58 + y_70 + y_71 + y_86 + y_94
   >= 1
 c_1_71: y_3 + y_5 + y_38 + y_56 + y_57 + y_58 + y_70 + y_71 + y_94 >= 1
 c_1_72: y_3 + y_7 + y_14 + y_15 + y_19 + y_58 + y_72 + y_94 >= 1
 c_1_73: y_13 + y_22 + y_28 + y_36 + y_40 + y_44 + y_59 + y_69 + y_73
   + y_75 + y_79 + y_85 >= 1
 c_1_74: y_2 + y_20 + y_33 + y_45 + y_47 + y_66 + y_74 + y_76 >= 1
 c_1_75: y_18 + y_28 + y_36 + y_69 + y_73 + y_75 + y_82 + y_85 + y_97 >= 1
 c_1_76: y_2 + y_11 + y_20 + y_23 + y_24 + y_27 + y_33 + y_45 + y_46 + y_47
   + y_49 + y_64 + y_66 + y_68 + y_74 + y_76 + y_83 >= 1
 c_1_77: y_17 + y_21 + y_37 + y_43 + y_52 + y_55 + y_62 + y_65 + y_77
   + y_84 + y_88 >= 1
 c_1_78: y_12 + y_57 + y_60 + y_63 + y_78 + y_80 + y_86 + y_88 + y_92
   + y_95 >= 1
 c_1_79: y_13 + y_17 + y_28 + y_40 + y_44 + y_52 + y_59 + y_65 + y_73
   + y_79 + y_85 + y_87 >= 1
 c_1_80: y_12 + y_21 + y_55 + y_78 + y_80 + y_84 + y_88 + y_89 >= 1
 c_1_81: y_0 + y_9 + y_10 + y_26 + y_31 + y_32 + y_37 + y_43 + y_50 + y_53
   + y_57 + y_63 + y_65 + y_81 + y_91 + y_92 + y_93 + y_95 >= 1
 c_1_82: y_18 + y_36 + y_69 + y_75 + y_82 + y_85 + y_97 >= 1
 c_1_83: y_1 + y_2 + y_11 + y_16 + y_20 + y_23 + y_24 + y_27 + y_35 + y_46
   + y_49 + y_64 + y_68 + y_76 + y_83 + y_90 + y_98 >= 1
 c_1_84: y_21 + y_55 + y_62 + y_77 + y_80 + y_84 + y_88 >= 1
 c_1_85: y_18 + y_28 + y_36 + y_40 + y_59 + y_69 + y_73 + y_75 + y_79
   + y_82 + y_85 + y_97 >= 1
 c_1_86: y_12 + y_38 + y_56 + y_60 + y_70 + y_78 + y_86 >= 1
 c_1_87: y_17 + y_40 + y_52 + y_65 + y_79 + y_87 >= 1
 c_1_88: y_12 + y_21 + y_43 + y_55 + y_62 + y_63 + y_65 + y_77 + y_78
   + y_80 + y_84 + y_88 + y_92 >= 1
 c_1_89: y_80 + y_89 >= 1
 c_1_90: y_11 + y_16 + y_22 + y_23 + y_24 + y_27 + y_35 + y_42 + y_46
   + y_49 + y_64 + y_68 + y_83 + y_90 + y_98 >= 1
 c_1_91: y_0 + y_1 + y_9 + y_10 + y_16 + y_26 + y_31 + y_32 + y_39 + y_50
   + y_51 + y_53 + y_81 + y_91 + y_93 + y_96 + y_99 >= 1
 c_1_92: y_12 + y_21 + y_57 + y_60 + y_63 + y_78 + y_81 + y_88 + y_92
   + y_95 >= 1
 c_1_93: y_0 + y_9 + y_10 + y_26 + y_31 + y_32 + y_37 + y_39 + y_50 + y_53
   + y_57 + y_63 + y_81 + y_91 + y_93 + y_95 >= 1
 c_1_94: y_3 + y_5 + y_7 + y_19 + y_39 + y_58 + y_70 + y_71 + y_72 + y_94
   >= 1
 c_1_95: y_12 + y_26 + y_53 + y_56 + y_57 + y_60 + y_63 + y_78 + y_81
   + y_92 + y_93 + y_95 >= 1
 c_1_96: y_1 + y_4 + y_6 + y_16 + y_19 + y_25 + y_26 + y_39 + y_51 + y_91
   + y_96 + y_99 >= 1
 c_1_97: y_18 + y_36 + y_69 + y_75 + y_82 + y_85 + y_97 >= 1
 c_1_98: y_8 + y_11 + y_16 + y_22 + y_23 + y_24 + y_27 + y_29 + y_35 + y_42
   + y_46 + y_49 + y_64 + y_68 + y_83 + y_90 + y_98 >= 1
 c_1_99: y_0 + y_1 + y_4 + y_6 + y_16 + y_25 + y_26 + y_32 + y_39 + y_51
   + y_91 + y_96 + y_99 >= 1
Bounds
 Constant = 1
Binaries
 y_0 y_1 y_2 y_3 y_4 y_5 y_6 y_7 y_8 y_9 y_10 y_11 y_12 y_13 y_14 y_15 y_16
 y_17 y_18 y_19 y_20 y_21 y_22 y_23 y_24 y_25 y_26 y_27 y_28 y_29 y_30 y_31
 y_32 y_33 y_34 y_35 y_36 y_37 y_38 y_39 y_40 y_41 y_42 y_43 y_44 y_45 y_46
 y_47 y_48 y_49 y_50 y_51 y_52 y_53 y_54 y_55 y_56 y_57 y_58 y_59 y_60 y_61
 y_62 y_63 y_64 y_65 y_66 y_67 y_68 y_69 y_70 y_71 y_72 y_73 y_74 y_75 y_76
 y_77 y_78 y_79 y_80 y_81 y_82 y_83 y_84 y_85 y_86 y_87 y_88 y_89 y_90 y_91
 y_92 y_93 y_94 y_95 y_96 y_97 y_98 y_99
End
